qbf_easy_train/easy_3410_UNSAT.qdimacs
p cnf 26 68
a 16 10 19 0
e 1 2 3 4 5 6 7 8 9 11 12 13 14 15 17 18 20 21 22 23 24 25 26 0
4 -2 0
4 -3 0
2 3 -4 0
-5 1 0
-5 4 0
-1 -4 5 0
-7 3 0
-7 6 0
-3 -6 7 0
-8 3 0
-8 -7 0
-3 7 8 0
9 -10 -11 0
-9 10 -11 0
9 10 11 0
-9 -10 11 0
-11 12 -13 0
11 -12 -13 0
-11 -12 13 0
11 12 13 0
-8 13 -14 0
8 -13 -14 0
-8 -13 14 0
8 13 14 0
-5 14 -15 0
5 -14 -15 0
-5 -14 15 0
5 14 15 0
6 -2 -16 0
-6 2 -16 0
6 2 16 0
-6 -2 16 0
9 17 -18 0
-9 -17 -18 0
9 -17 18 0
-9 17 18 0
-19 -3 0
-19 7 0
3 -7 19 0
-20 18 0
-20 -19 0
-18 19 20 0
21 16 0
21 -20 0
-16 20 -21 0
-22 18 0
-22 -2 0
-18 2 22 0
-23 -21 0
-23 -22 0
21 22 23 0
24 -1 0
24 -7 0
1 7 -24 0
25 -23 0
25 -24 0
23 24 -25 0
-15 25 -26 0
15 -25 -26 0
-15 -25 26 0
15 25 26 0
-25 3 -17 -2 0
-20 -18 17 19 -2 4 -10 23 0
6 12 17 -7 -15 4 24 0
-4 -16 -15 0
5 19 -7 6 -13 0
-16 -14 -10 -15 0
26 0
