sat_easy_train/easy_3410_UNSAT.dimacs
p cnf 106 346
-1 2 -3 0
1 -2 -3 0
-1 -2 3 0
1 2 3 0
7 5 0
7 -6 0
-5 6 -7 0
-4 -7 -8 0
4 7 -8 0
-4 7 8 0
4 -7 8 0
8 -9 -10 0
-8 9 -10 0
8 9 10 0
-8 -9 10 0
-11 3 0
-11 -10 0
-3 10 11 0
-9 -6 -12 0
9 6 -12 0
-9 6 12 0
9 -6 12 0
12 -7 -13 0
-12 7 -13 0
12 7 13 0
-12 -7 13 0
-16 14 0
-16 -15 0
-14 15 16 0
17 16 0
17 7 0
-16 -7 -17 0
20 -18 0
20 19 0
18 -19 -20 0
21 17 0
21 -20 0
-17 20 -21 0
-22 21 0
-22 3 0
-21 -3 22 0
23 10 0
23 22 0
-10 -22 -23 0
-24 13 0
-24 23 0
-13 -23 24 0
25 7 0
25 4 0
-7 -4 -25 0
9 26 -27 0
-9 -26 -27 0
9 -26 27 0
-9 26 27 0
28 -27 0
28 -6 0
27 6 -28 0
-29 -28 0
-29 -20 0
28 20 29 0
-30 -29 0
-30 -27 0
29 27 30 0
25 -30 -31 0
-25 30 -31 0
25 30 31 0
-25 -30 31 0
32 -24 0
32 31 0
24 -31 -32 0
-9 7 -33 0
9 -7 -33 0
-9 -7 33 0
9 7 33 0
-34 4 0
-34 -33 0
-4 33 34 0
32 34 -35 0
-32 -34 -35 0
32 -34 35 0
-32 34 35 0
36 -28 0
36 -10 0
28 10 -36 0
-37 21 0
-37 -28 0
-21 28 37 0
-37 14 -38 0
37 -14 -38 0
-37 -14 38 0
37 14 38 0
-39 36 0
-39 -38 0
-36 38 39 0
-41 -15 0
-41 -27 0
15 27 41 0
-42 -41 0
-42 38 0
41 -38 42 0
-43 -40 0
-43 -42 0
40 42 43 0
-14 44 -45 0
14 -44 -45 0
-14 -44 45 0
14 44 45 0
-46 -43 0
-46 45 0
43 -45 46 0
-48 -47 0
-48 18 0
47 -18 48 0
49 -48 0
49 14 0
48 -14 -49 0
50 49 0
50 15 0
-49 -15 -50 0
-51 -46 0
-51 50 0
46 -50 51 0
-39 51 -52 0
39 -51 -52 0
-39 -51 52 0
39 51 52 0
53 48 0
53 -21 0
-48 21 -53 0
-52 53 -54 0
52 -53 -54 0
-52 -53 54 0
52 53 54 0
55 35 0
55 54 0
-35 -54 -55 0
56 -11 0
56 55 0
11 -55 -56 0
57 -2 0
57 30 0
2 -30 -57 0
-58 7 0
-58 36 0
-7 -36 58 0
57 -58 -59 0
-57 58 -59 0
57 58 59 0
-57 -58 59 0
-44 -40 -60 0
44 40 -60 0
-44 40 60 0
44 -40 60 0
61 -60 0
61 -1 0
60 1 -61 0
38 61 -62 0
-38 -61 -62 0
38 -61 62 0
-38 61 62 0
64 -62 0
64 63 0
62 -63 -64 0
65 -3 0
65 9 0
3 -9 -65 0
66 65 0
66 -10 0
-65 10 -66 0
67 -64 0
67 66 0
64 -66 -67 0
-68 59 0
-68 -67 0
-59 67 68 0
-25 6 -69 0
25 -6 -69 0
-25 -6 69 0
25 6 69 0
70 -2 0
70 60 0
2 -60 -70 0
-71 -21 0
-71 -70 0
21 70 71 0
72 -69 0
72 -71 0
69 71 -72 0
74 -73 0
74 -18 0
73 18 -74 0
-21 -41 -75 0
21 41 -75 0
-21 41 75 0
21 -41 75 0
-76 -75 0
-76 70 0
75 -70 76 0
77 74 0
77 76 0
-74 -76 -77 0
78 1 0
78 1 0
-1 -78 0
-79 -2 0
-79 -78 0
2 78 79 0
80 -79 0
80 -28 0
79 28 -80 0
-77 -80 -81 0
77 80 -81 0
-77 80 81 0
77 -80 81 0
-72 -81 -82 0
72 81 -82 0
-72 81 82 0
72 -81 82 0
-83 -44 0
-83 78 0
44 -78 83 0
-84 82 0
-84 -83 0
-82 83 84 0
85 -14 0
85 16 0
14 -16 -85 0
86 47 0
86 26 0
-47 -26 -86 0
14 16 -87 0
-14 -16 -87 0
14 -16 87 0
-14 16 87 0
-49 -87 -88 0
49 87 -88 0
-49 87 88 0
49 -87 88 0
-89 1 0
-89 44 0
-1 -44 89 0
-90 -88 0
-90 89 0
88 -89 90 0
91 -86 0
91 -90 0
86 90 -91 0
-92 85 0
-92 91 0
-85 -91 92 0
84 92 -93 0
-84 -92 -93 0
84 -92 93 0
-84 92 93 0
-94 62 0
-94 -37 0
-62 37 94 0
-95 -17 0
-95 -5 0
17 5 95 0
96 -87 0
96 -6 0
87 6 -96 0
-95 -96 -97 0
95 96 -97 0
-95 96 97 0
95 -96 97 0
-38 -37 -98 0
38 37 -98 0
-38 37 98 0
38 -37 98 0
-42 -14 -99 0
42 14 -99 0
-42 14 99 0
42 -14 99 0
100 -28 0
100 99 0
28 -99 -100 0
-98 -100 -101 0
98 100 -101 0
-98 100 101 0
98 -100 101 0
102 -97 0
102 101 0
97 -101 -102 0
94 102 -103 0
-94 -102 -103 0
94 -102 103 0
-94 102 103 0
-104 -93 0
-104 103 0
93 -103 104 0
-68 -104 -105 0
68 104 -105 0
-68 104 105 0
68 -104 105 0
56 -105 -106 0
-56 105 -106 0
56 105 106 0
-56 -105 106 0
-72 -105 0
-99 67 0
-83 96 0
38 -51 -56 47 -41 0
58 15 -70 0
27 -89 0
-7 87 -30 0
105 70 61 36 96 0
-13 54 -55 0
46 96 30 -21 34 0
89 87 3 0
-80 -91 75 0
-81 -1 0
96 -97 -103 0
19 -104 -35 -17 -64 87 0
45 -93 0
-82 5 -20 -10 -85 0
94 -55 0
-9 -63 18 66 -74 0
13 -25 15 0
13 35 17 -104 74 -102 0
-27 49 52 21 89 0
-61 13 0
3 25 55 0
64 49 -66 103 0
-94 -78 55 105 -29 0
-66 57 -15 -2 -30 38 0
69 -88 72 0
-63 43 25 0
-41 -46 0
72 -25 41 37 -27 71 0
-23 -76 43 30 -64 0
-39 -10 -16 -96 0
-78 -6 -35 -60 101 0
-89 62 0
95 10 -83 -74 -79 0
-15 -75 91 0
41 29 0
-92 -56 0
-96 73 -100 0
-44 -51 65 0
-54 -6 95 77 -60 72 0
50 -87 0
-64 62 55 75 -100 0
31 82 -53 -25 0
106 0
